51 51
0 2 1
2 1 0
1 3 1
3 4 2
4 5 3
5 6 3
6 7 3
7 8 2
8 9 2
9 10 1
10 11 1
11 12 1
12 13 1
13 14 1
14 15 1
15 16 2
16 17 3
17 18 3
18 19 2
19 20 1
20 21 3
21 22 3
22 23 3
23 24 4
24 25 4
25 26 3
26 27 4
27 28 5
28 29 6
29 30 5
30 31 6
31 32 6
32 33 6
33 34 6
34 35 6
35 36 6
36 37 6
37 38 6
38 39 6
39 40 7
40 41 6
41 42 7
42 43 8
43 44 8
44 45 9
45 46 9
46 47 10
47 48 10
48 49 9
49 50 9
50 0 169
